8 6 98
5 5 1 7 1 7 2 7 3 2 2 2 20 20 40 40 60 60 82 82 98 
5 8 1 4 1 2 1 4 2 1 2 8 26 26 54 54 76 76 88 88 98 
4 6 1 8 2 5 2 8 3 4 28 28 48 48 84 84 98 
5 3 1 1 1 3 2 6 2 6 3 10 26 26 36 36 50 50 86 86 98 
11 5 1 8 1 8 1 4 1 4 1 1 1 1 1 2 1 2 1 1 2 1 2 0 2 2 5 5 8 8 12 12 15 15 19 19 22 22 24 24 27 34 36 36 41 
12 6 1 3 1 3 1 7 1 7 1 8 2 8 2 5 2 5 2 6 2 2 2 2 2 0 4 4 7 7 10 10 12 12 14 25 26 26 27 27 32 32 34 34 35 71 76 76 82 
